(set-info :smt-lib-version 2.6)
(set-logic ALL)
(set-info :source |
Generated on: 2026-06-22
Generator: ppTransSmt github.com/CLEARSY/pptranspog
Application: Discharging a proof obligation generated by aTelierB from an anonymized B machine
Target solver: CVC5 (--mbqi --enum-inst)
Time limit: 1200.0
|)
(set-info :license "www.gnu.org/licenses/gpl-3.0.en.html")
(set-info :category "industrial")
(set-info :status unknown)

(set-option :print-success false)
; Prelude
(declare-sort P 1)
(declare-fun mem0 (Int (P Int)) Bool)
(declare-sort C 2)

(declare-fun divB (Int Int) Int)
(assert (!
 (forall ((x Int) (y Int))
  (!
   (and
    (=> (and (<= 0 x) (< 0 y)) (= (divB x y) (div x y)))
    (=> (and (<= x 0) (< 0 y)) (= (divB x y) (- 0 (div (- 0 x) y))))
    (=> (and (<= 0 x) (< y 0)) (= (divB x y) (div x y)))
    (=> (and (<= x 0) (< y 0)) (= (divB x y) (div (- 0 x) (- 0 y))))
   )
   :pattern ((divB x y))
  )
 )
 :named |divB_axiom|))


(declare-fun iexp (Int Int) Int)
(assert (!
 (forall ((x Int))
  (!
   (=> (not (= x 0)) (= (iexp x 0) 1))
   :pattern ((iexp x 0))
  )
 )
 :named |iexp_axiom_1|
))
(assert (!
 (forall ((x Int) (n Int))
  (!
   (=> (>= n 1) (= (iexp x n) (* x (iexp x (- n 1)))))
   :pattern ((iexp x n))
  )
 )
 :named |iexp_axiom_2|))

(define-fun MinInt () Int (- 2147483648))
(define-fun MaxInt () Int 2147483647)
; Global declarations
(declare-fun g_s0_0 () (P Int))
(declare-fun g_s10_10 () Int)
(declare-fun g_s11_11 () (P Int))
(declare-fun g_s12_12 () (P (C Bool Int)))
(declare-fun g_s13_13 () (P (C (C Int Int) Int)))
(declare-fun g_s14_14 () (P (C (C Int Int) Int)))
(declare-fun g_s15_15 () (P (C (C Int Int) Int)))
(declare-fun g_s18_16 () (P (C Int Int)))
(declare-fun g_s19_17 () (P (C Int Int)))
(declare-fun g_s1_1 () (P Int))
(declare-fun g_s20$1_33 () Int)
(declare-fun g_s20_32 () Int)
(declare-fun g_s21_18 () (P (C (C Int Int) Int)))
(declare-fun g_s22_19 () (P (C (C Int Int) Int)))
(declare-fun g_s23_20 () (P (C (C Int Int) Int)))
(declare-fun g_s24_21 () (P (C (C Int Int) Int)))
(declare-fun g_s25_22 () (P (C (C Int Int) Int)))
(declare-fun g_s26_23 () (P (C Int Int)))
(declare-fun g_s27_24 () (P (C Int (P (C Int Int)))))
(declare-fun g_s28_25 () (P (C Int (P (C Int Int)))))
(declare-fun g_s29_26 () (P (C Int (P (C Int Int)))))
(declare-fun g_s2_2 () (P Int))
(declare-fun g_s30_27 () (P (C Int (P (C Int Int)))))
(declare-fun g_s31_28 () (P (C Int (P (C Int Int)))))
(declare-fun g_s32_29 () (P (C Int (P (C Int Int)))))
(declare-fun g_s33_30 () (P (C Int (P (C Int Int)))))
(declare-fun g_s34_31 () (P (C Int (P (C Int Int)))))
(declare-fun g_s3_3 () (P Int))
(declare-fun g_s4_4 () Int)
(declare-fun g_s5_5 () Int)
(declare-fun g_s6_6 () Int)
(declare-fun g_s7_7 () Int)
(declare-fun g_s8_8 () Int)
(declare-fun g_s9_9 () Int)
(declare-fun mem2 ( Bool Int (P (C Bool Int))) Bool)
(declare-fun mem3 ( Int Int Int (P (C (C Int Int) Int))) Bool)
(declare-fun mem4 ( Int Int (P (C Int Int))) Bool)
(declare-fun mem5 ( Int (P (C Int Int)) (P (C Int (P (C Int Int))))) Bool)
; Defines
(define-fun |def_ctx_0| () Bool (forall ( (x_3 Int) ) (= (mem0 x_3 g_s0_0) (and (>= x_3 0) (<= x_3 18446744073709551615)))))
(define-fun |def_ctx_1| () Bool (forall ( (x_4 Int) ) (= (mem0 x_4 g_s1_1) (and (>= x_4 0) (<= x_4 4294967295)))))
(define-fun |def_ctx_2| () Bool (forall ( (x_5 Int) ) (= (mem0 x_5 g_s2_2) (and (>= x_5 0) (<= x_5 65535)))))
(define-fun |def_ctx_3| () Bool (forall ( (x_6 Int) ) (= (mem0 x_6 g_s3_3) (and (>= x_6 0) (<= x_6 255)))))
(define-fun |def_ctx_4| () Bool (mem0 g_s4_4 g_s0_0))
(define-fun |def_ctx_5| () Bool (mem0 g_s5_5 g_s1_1))
(define-fun |def_ctx_6| () Bool (mem0 g_s6_6 g_s2_2))
(define-fun |def_ctx_7| () Bool (mem0 g_s7_7 g_s3_3))
(define-fun |def_ctx_8| () Bool (mem0 g_s8_8 g_s1_1))
(define-fun |def_ctx_9| () Bool (mem0 g_s9_9 g_s3_3))
(define-fun |def_ctx_10| () Bool (mem0 g_s10_10 g_s3_3))
(define-fun |def_ctx_11| () Bool (= g_s4_4 18446744073709551615))
(define-fun |def_ctx_12| () Bool (= g_s5_5 4294967295))
(define-fun |def_ctx_13| () Bool (= g_s6_6 65535))
(define-fun |def_ctx_14| () Bool (= g_s7_7 255))
(define-fun |def_ctx_15| () Bool (= g_s8_8 (divB (+ g_s5_5 1) 2)))
(define-fun |def_ctx_16| () Bool (and (>= g_s9_9 0) (<= g_s9_9 g_s7_7)))
(define-fun |def_ctx_17| () Bool (and (>= g_s10_10 0) (<= g_s10_10 g_s7_7)))
(define-fun |def_ctx_18| () Bool (not (= g_s9_9 g_s10_10)))
(define-fun |def_ctx_19| () Bool (forall ( (x_7 Int) ) (= (mem0 x_7 g_s11_11) (or  (= x_7 g_s9_9) (= x_7 g_s10_10)))))
(define-fun |def_ctx_20| () Bool (<= g_s9_9 2))
(define-fun |def_ctx_21| () Bool (<= g_s10_10 2))
(define-fun |def_ctx_22| () Bool (forall ( (x_8 Int) (x_9 Bool) ) (= (mem2 x_9 x_8 g_s12_12) (or  (and (= x_9 true) (= x_8 g_s9_9)) (and (= x_9 false) (= x_8 g_s10_10))))))
(define-fun |def_ctx_23| () Bool (exists ( (x_10 (P (C (C Int Int) Int))) ) (and (forall ( (x_11 Int) (x_12 Int) (x_13 Int) ) (= (mem3 x_13 x_12 x_11 x_10) (mem3 x_13 x_12 x_11 g_s13_13))) (forall ( (x_14 Int) (x_15 Int) (x_16 Int) (x_17 Int) ) (=> (and  (mem3 x_15 x_14 x_16 x_10) (mem3 x_15 x_14 x_17 x_10)) (= x_16 x_17))) (forall ( (x_18 Int) (x_19 Int) ) (= (and (mem0 x_19 g_s1_1) (mem0 x_18 g_s1_1)) (exists ( (x_20 Int) ) (mem3 x_19 x_18 x_20 x_10)))) (forall ( (x_21 Int) ) (=> (exists ( (x_22 Int) (x_23 Int) ) (mem3 x_23 x_22 x_21 x_10)) (mem0 x_21 g_s1_1))))))
(define-fun |def_ctx_24| () Bool (exists ( (x_24 (P (C (C Int Int) Int))) ) (and (forall ( (x_25 Int) (x_26 Int) (x_27 Int) ) (= (mem3 x_27 x_26 x_25 x_24) (mem3 x_27 x_26 x_25 g_s14_14))) (forall ( (x_28 Int) (x_29 Int) (x_30 Int) (x_31 Int) ) (=> (and  (mem3 x_29 x_28 x_30 x_24) (mem3 x_29 x_28 x_31 x_24)) (= x_30 x_31))) (forall ( (x_32 Int) (x_33 Int) ) (= (and (mem0 x_33 g_s1_1) (mem0 x_32 g_s1_1)) (exists ( (x_34 Int) ) (mem3 x_33 x_32 x_34 x_24)))) (forall ( (x_35 Int) ) (=> (exists ( (x_36 Int) (x_37 Int) ) (mem3 x_37 x_36 x_35 x_24)) (mem0 x_35 g_s1_1))))))
(define-fun |def_ctx_25| () Bool (exists ( (x_38 (P (C (C Int Int) Int))) ) (and (forall ( (x_39 Int) (x_40 Int) (x_41 Int) ) (= (mem3 x_41 x_40 x_39 x_38) (mem3 x_41 x_40 x_39 g_s15_15))) (forall ( (x_42 Int) (x_43 Int) (x_44 Int) (x_45 Int) ) (=> (and  (mem3 x_43 x_42 x_44 x_38) (mem3 x_43 x_42 x_45 x_38)) (= x_44 x_45))) (forall ( (x_46 Int) (x_47 Int) ) (= (and (mem0 x_47 g_s1_1) (mem0 x_46 g_s1_1)) (exists ( (x_48 Int) ) (mem3 x_47 x_46 x_48 x_38)))) (forall ( (x_49 Int) ) (=> (exists ( (x_50 Int) (x_51 Int) ) (mem3 x_51 x_50 x_49 x_38)) (mem0 x_49 g_s1_1))))))
(define-fun |def_ctx_26| () Bool (forall ( (x_52 Int) (x_53 Int) (x_54 Int) ) (= (mem3 x_54 x_53 x_52 g_s13_13) (and  (and  (mem0 x_54 g_s1_1) (mem0 x_53 g_s1_1)) (= x_52 (mod (+ x_54 x_53) (+ g_s5_5 1)))))))
(define-fun |def_ctx_27| () Bool (forall ( (x_55 Int) (x_56 Int) (x_57 Int) ) (= (mem3 x_57 x_56 x_55 g_s14_14) (and  (and  (mem0 x_57 g_s1_1) (mem0 x_56 g_s1_1)) (= x_55 (mod (+ (+ (- x_57 x_56) g_s5_5) 1) (+ g_s5_5 1)))))))
(define-fun |def_ctx_28| () Bool (forall ( (x_58 Int) (x_59 Int) (x_60 Int) ) (= (mem3 x_60 x_59 x_58 g_s15_15) (and  (and  (mem0 x_60 g_s1_1) (mem0 x_59 g_s1_1)) (= x_58 (mod (* x_60 x_59) (+ g_s5_5 1)))))))
(define-fun |def_ctx_29| () Bool (exists ( (x_61 (P (C Int Int))) ) (and (forall ( (x_62 Int) (x_63 Int) ) (= (mem4 x_63 x_62 x_61) (mem4 x_63 x_62 g_s18_16))) (forall ( (x_64 Int) (x_65 Int) (x_66 Int) ) (=> (and  (mem4 x_64 x_65 x_61) (mem4 x_64 x_66 x_61)) (= x_65 x_66))) (forall ( (x_67 Int) ) (= (mem0 x_67 g_s3_3) (exists ( (x_68 Int) ) (mem4 x_67 x_68 x_61)))) (forall ( (x_69 Int) ) (=> (exists ( (x_70 Int) ) (mem4 x_70 x_69 x_61)) (mem0 x_69 g_s3_3))))))
(define-fun |def_ctx_30| () Bool (exists ( (x_71 (P (C Int Int))) ) (and (forall ( (x_72 Int) (x_73 Int) ) (= (mem4 x_73 x_72 x_71) (mem4 x_73 x_72 g_s19_17))) (forall ( (x_74 Int) (x_75 Int) (x_76 Int) ) (=> (and  (mem4 x_74 x_75 x_71) (mem4 x_74 x_76 x_71)) (= x_75 x_76))) (forall ( (x_77 Int) ) (= (mem0 x_77 g_s2_2) (exists ( (x_78 Int) ) (mem4 x_77 x_78 x_71)))) (forall ( (x_79 Int) ) (=> (exists ( (x_80 Int) ) (mem4 x_80 x_79 x_71)) (mem0 x_79 g_s2_2))))))
(define-fun |def_ctx_31| () Bool (forall ( (x_81 Int) (x_82 Int) ) (= (mem4 x_82 x_81 g_s18_16) (and  (mem0 x_82 g_s3_3) (= x_81 x_82)))))
(define-fun |def_ctx_32| () Bool (forall ( (x_83 Int) (x_84 Int) ) (= (mem4 x_84 x_83 g_s19_17) (and  (mem0 x_84 g_s2_2) (= x_83 x_84)))))
(define-fun |def_ctx_33| () Bool (exists ( (x_85 (P (C (C Int Int) Int))) ) (and (forall ( (x_86 Int) (x_87 Int) (x_88 Int) ) (= (mem3 x_88 x_87 x_86 x_85) (mem3 x_88 x_87 x_86 g_s21_18))) (forall ( (x_89 Int) (x_90 Int) (x_91 Int) (x_92 Int) ) (=> (and  (mem3 x_90 x_89 x_91 x_85) (mem3 x_90 x_89 x_92 x_85)) (= x_91 x_92))) (forall ( (x_93 Int) (x_94 Int) ) (= (and (mem0 x_94 g_s1_1) (mem0 x_93 g_s3_3)) (exists ( (x_95 Int) ) (mem3 x_94 x_93 x_95 x_85)))) (forall ( (x_96 Int) ) (=> (exists ( (x_97 Int) (x_98 Int) ) (mem3 x_98 x_97 x_96 x_85)) (mem0 x_96 g_s1_1))))))
(define-fun |def_ctx_34| () Bool (exists ( (x_99 (P (C (C Int Int) Int))) ) (and (forall ( (x_100 Int) (x_101 Int) (x_102 Int) ) (= (mem3 x_102 x_101 x_100 x_99) (mem3 x_102 x_101 x_100 g_s22_19))) (forall ( (x_103 Int) (x_104 Int) (x_105 Int) (x_106 Int) ) (=> (and  (mem3 x_104 x_103 x_105 x_99) (mem3 x_104 x_103 x_106 x_99)) (= x_105 x_106))) (forall ( (x_107 Int) (x_108 Int) ) (= (and (mem0 x_108 g_s1_1) (mem0 x_107 g_s3_3)) (exists ( (x_109 Int) ) (mem3 x_108 x_107 x_109 x_99)))) (forall ( (x_110 Int) ) (=> (exists ( (x_111 Int) (x_112 Int) ) (mem3 x_112 x_111 x_110 x_99)) (mem0 x_110 g_s1_1))))))
(define-fun |def_ctx_35| () Bool (exists ( (x_113 (P (C (C Int Int) Int))) ) (and (forall ( (x_114 Int) (x_115 Int) (x_116 Int) ) (= (mem3 x_116 x_115 x_114 x_113) (mem3 x_116 x_115 x_114 g_s23_20))) (forall ( (x_117 Int) (x_118 Int) (x_119 Int) (x_120 Int) ) (=> (and  (mem3 x_118 x_117 x_119 x_113) (mem3 x_118 x_117 x_120 x_113)) (= x_119 x_120))) (forall ( (x_121 Int) (x_122 Int) ) (= (and (mem0 x_122 g_s1_1) (mem0 x_121 g_s1_1)) (exists ( (x_123 Int) ) (mem3 x_122 x_121 x_123 x_113)))) (forall ( (x_124 Int) ) (=> (exists ( (x_125 Int) (x_126 Int) ) (mem3 x_126 x_125 x_124 x_113)) (mem0 x_124 g_s1_1))))))
(define-fun |def_ctx_36| () Bool (exists ( (x_127 (P (C (C Int Int) Int))) ) (and (forall ( (x_128 Int) (x_129 Int) (x_130 Int) ) (= (mem3 x_130 x_129 x_128 x_127) (mem3 x_130 x_129 x_128 g_s24_21))) (forall ( (x_131 Int) (x_132 Int) (x_133 Int) (x_134 Int) ) (=> (and  (mem3 x_132 x_131 x_133 x_127) (mem3 x_132 x_131 x_134 x_127)) (= x_133 x_134))) (forall ( (x_135 Int) (x_136 Int) ) (= (and (mem0 x_136 g_s1_1) (mem0 x_135 g_s1_1)) (exists ( (x_137 Int) ) (mem3 x_136 x_135 x_137 x_127)))) (forall ( (x_138 Int) ) (=> (exists ( (x_139 Int) (x_140 Int) ) (mem3 x_140 x_139 x_138 x_127)) (mem0 x_138 g_s1_1))))))
(define-fun |def_ctx_37| () Bool (exists ( (x_141 (P (C (C Int Int) Int))) ) (and (forall ( (x_142 Int) (x_143 Int) (x_144 Int) ) (= (mem3 x_144 x_143 x_142 x_141) (mem3 x_144 x_143 x_142 g_s25_22))) (forall ( (x_145 Int) (x_146 Int) (x_147 Int) (x_148 Int) ) (=> (and  (mem3 x_146 x_145 x_147 x_141) (mem3 x_146 x_145 x_148 x_141)) (= x_147 x_148))) (forall ( (x_149 Int) (x_150 Int) ) (= (and (mem0 x_150 g_s1_1) (mem0 x_149 g_s1_1)) (exists ( (x_151 Int) ) (mem3 x_150 x_149 x_151 x_141)))) (forall ( (x_152 Int) ) (=> (exists ( (x_153 Int) (x_154 Int) ) (mem3 x_154 x_153 x_152 x_141)) (mem0 x_152 g_s1_1))))))
(define-fun |def_ctx_38| () Bool (exists ( (x_155 (P (C Int Int))) ) (and (forall ( (x_156 Int) (x_157 Int) ) (= (mem4 x_157 x_156 x_155) (mem4 x_157 x_156 g_s26_23))) (forall ( (x_158 Int) (x_159 Int) (x_160 Int) ) (=> (and  (mem4 x_158 x_159 x_155) (mem4 x_158 x_160 x_155)) (= x_159 x_160))) (forall ( (x_161 Int) ) (= (mem0 x_161 g_s1_1) (exists ( (x_162 Int) ) (mem4 x_161 x_162 x_155)))) (forall ( (x_163 Int) ) (=> (exists ( (x_164 Int) ) (mem4 x_164 x_163 x_155)) (mem0 x_163 g_s1_1))))))
(define-fun |def_ctx_39| () Bool (forall ( (x_165 Int) (x_166 Int) (x_167 Int) ) (= (mem3 x_167 x_166 x_165 g_s21_18) (and  (and  (mem0 x_167 g_s1_1) (mem0 x_166 g_s3_3)) (= x_165 (mod (* x_167 (iexp 2 x_166)) (+ g_s5_5 1)))))))
(define-fun |def_ctx_40| () Bool (forall ( (x_168 Int) (x_169 Int) (x_170 Int) ) (= (mem3 x_170 x_169 x_168 g_s22_19) (and  (and  (mem0 x_170 g_s1_1) (mem0 x_169 g_s3_3)) (= x_168 (divB x_170 (iexp 2 x_169)))))))
(define-fun |def_seext_0| () Bool (and (forall ( (x_171 Int) (x_172 Bool) ) (=> (mem2 x_172 x_171 g_s12_12) (and true (mem0 x_171 g_s3_3)))) (forall ( (x_173 Bool) (x_174 Int) (x_175 Int) ) (=> (and  (mem2 x_173 x_174 g_s12_12) (mem2 x_173 x_175 g_s12_12)) (= x_174 x_175)))))
(define-fun |def_seext_1| () Bool (and (forall ( (x_176 Int) (x_177 Bool) ) (=> (mem2 x_177 x_176 g_s12_12) (and true (mem0 x_176 g_s2_2)))) (forall ( (x_178 Bool) (x_179 Int) (x_180 Int) ) (=> (and  (mem2 x_178 x_179 g_s12_12) (mem2 x_178 x_180 g_s12_12)) (= x_179 x_180)))))
(define-fun |def_seext_2| () Bool (and (forall ( (x_181 Int) (x_182 Bool) ) (=> (mem2 x_182 x_181 g_s12_12) (and true (mem0 x_181 g_s1_1)))) (forall ( (x_183 Bool) (x_184 Int) (x_185 Int) ) (=> (and  (mem2 x_183 x_184 g_s12_12) (mem2 x_183 x_185 g_s12_12)) (= x_184 x_185)))))
(define-fun |def_aprp_0| () Bool (and (and (exists ( (x_186 (P (C Int (P (C Int Int))))) ) (and (forall ( (x_187 (P (C Int Int))) (x_188 Int) ) (= (mem5 x_188 x_187 x_186) (mem5 x_188 x_187 g_s27_24))) (forall ( (x_189 Int) (x_190 (P (C Int Int))) (x_191 (P (C Int Int))) ) (=> (and  (mem5 x_189 x_190 x_186) (mem5 x_189 x_191 x_186)) (forall ( (x_192 Int) (x_193 Int) ) (= (mem4 x_193 x_192 x_190) (mem4 x_193 x_192 x_191))))) (forall ( (x_194 Int) ) (= (mem0 x_194 g_s2_2) (exists ( (x_195 (P (C Int Int))) ) (mem5 x_194 x_195 x_186)))) (forall ( (x_196 (P (C Int Int))) ) (=> (exists ( (x_197 Int) ) (mem5 x_197 x_196 x_186)) (exists ( (x_198 (P (C Int Int))) ) (and (forall ( (x_199 Int) (x_200 Int) ) (= (mem4 x_200 x_199 x_198) (mem4 x_200 x_199 x_196))) (forall ( (x_201 Int) (x_202 Int) (x_203 Int) ) (=> (and  (mem4 x_201 x_202 x_198) (mem4 x_201 x_203 x_198)) (= x_202 x_203))) (forall ( (x_204 Int) ) (= (and (>= x_204 1) (<= x_204 2)) (exists ( (x_205 Int) ) (mem4 x_204 x_205 x_198)))) (forall ( (x_206 Int) ) (=> (exists ( (x_207 Int) ) (mem4 x_207 x_206 x_198)) (mem0 x_206 g_s3_3))))))))) (forall ( (x_208 (P (C Int Int))) ) (=> (exists ( (x_209 (P (C Int Int))) ) (and (forall ( (x_210 Int) (x_211 Int) ) (= (mem4 x_211 x_210 x_209) (mem4 x_211 x_210 x_208))) (forall ( (x_212 Int) (x_213 Int) (x_214 Int) ) (=> (and  (mem4 x_212 x_213 x_209) (mem4 x_212 x_214 x_209)) (= x_213 x_214))) (forall ( (x_215 Int) ) (= (and (>= x_215 1) (<= x_215 2)) (exists ( (x_216 Int) ) (mem4 x_215 x_216 x_209)))) (forall ( (x_217 Int) ) (=> (exists ( (x_218 Int) ) (mem4 x_218 x_217 x_209)) (mem0 x_217 g_s3_3))))) (exists ( (x_219 Int) ) (mem5 x_219 x_208 g_s27_24))))) (forall ( (x_220 (P (C Int Int))) (x_221 Int) (x_222 Int) ) (=> (and  (mem5 x_221 x_220 g_s27_24) (mem5 x_222 x_220 g_s27_24)) (= x_221 x_222)))))
(define-fun |def_aprp_1| () Bool (and (and (exists ( (x_223 (P (C Int (P (C Int Int))))) ) (and (forall ( (x_224 (P (C Int Int))) (x_225 Int) ) (= (mem5 x_225 x_224 x_223) (mem5 x_225 x_224 g_s28_25))) (forall ( (x_226 Int) (x_227 (P (C Int Int))) (x_228 (P (C Int Int))) ) (=> (and  (mem5 x_226 x_227 x_223) (mem5 x_226 x_228 x_223)) (forall ( (x_229 Int) (x_230 Int) ) (= (mem4 x_230 x_229 x_227) (mem4 x_230 x_229 x_228))))) (forall ( (x_231 Int) ) (= (and (>= x_231 0) (<= x_231 16777215)) (exists ( (x_232 (P (C Int Int))) ) (mem5 x_231 x_232 x_223)))) (forall ( (x_233 (P (C Int Int))) ) (=> (exists ( (x_234 Int) ) (mem5 x_234 x_233 x_223)) (exists ( (x_235 (P (C Int Int))) ) (and (forall ( (x_236 Int) (x_237 Int) ) (= (mem4 x_237 x_236 x_235) (mem4 x_237 x_236 x_233))) (forall ( (x_238 Int) (x_239 Int) (x_240 Int) ) (=> (and  (mem4 x_238 x_239 x_235) (mem4 x_238 x_240 x_235)) (= x_239 x_240))) (forall ( (x_241 Int) ) (= (and (>= x_241 1) (<= x_241 3)) (exists ( (x_242 Int) ) (mem4 x_241 x_242 x_235)))) (forall ( (x_243 Int) ) (=> (exists ( (x_244 Int) ) (mem4 x_244 x_243 x_235)) (mem0 x_243 g_s3_3))))))))) (forall ( (x_245 (P (C Int Int))) ) (=> (exists ( (x_246 (P (C Int Int))) ) (and (forall ( (x_247 Int) (x_248 Int) ) (= (mem4 x_248 x_247 x_246) (mem4 x_248 x_247 x_245))) (forall ( (x_249 Int) (x_250 Int) (x_251 Int) ) (=> (and  (mem4 x_249 x_250 x_246) (mem4 x_249 x_251 x_246)) (= x_250 x_251))) (forall ( (x_252 Int) ) (= (and (>= x_252 1) (<= x_252 3)) (exists ( (x_253 Int) ) (mem4 x_252 x_253 x_246)))) (forall ( (x_254 Int) ) (=> (exists ( (x_255 Int) ) (mem4 x_255 x_254 x_246)) (mem0 x_254 g_s3_3))))) (exists ( (x_256 Int) ) (mem5 x_256 x_245 g_s28_25))))) (forall ( (x_257 (P (C Int Int))) (x_258 Int) (x_259 Int) ) (=> (and  (mem5 x_258 x_257 g_s28_25) (mem5 x_259 x_257 g_s28_25)) (= x_258 x_259)))))
(define-fun |def_aprp_2| () Bool (and (and (exists ( (x_260 (P (C Int (P (C Int Int))))) ) (and (forall ( (x_261 (P (C Int Int))) (x_262 Int) ) (= (mem5 x_262 x_261 x_260) (mem5 x_262 x_261 g_s29_26))) (forall ( (x_263 Int) (x_264 (P (C Int Int))) (x_265 (P (C Int Int))) ) (=> (and  (mem5 x_263 x_264 x_260) (mem5 x_263 x_265 x_260)) (forall ( (x_266 Int) (x_267 Int) ) (= (mem4 x_267 x_266 x_264) (mem4 x_267 x_266 x_265))))) (forall ( (x_268 Int) ) (= (mem0 x_268 g_s1_1) (exists ( (x_269 (P (C Int Int))) ) (mem5 x_268 x_269 x_260)))) (forall ( (x_270 (P (C Int Int))) ) (=> (exists ( (x_271 Int) ) (mem5 x_271 x_270 x_260)) (exists ( (x_272 (P (C Int Int))) ) (and (forall ( (x_273 Int) (x_274 Int) ) (= (mem4 x_274 x_273 x_272) (mem4 x_274 x_273 x_270))) (forall ( (x_275 Int) (x_276 Int) (x_277 Int) ) (=> (and  (mem4 x_275 x_276 x_272) (mem4 x_275 x_277 x_272)) (= x_276 x_277))) (forall ( (x_278 Int) ) (= (and (>= x_278 1) (<= x_278 4)) (exists ( (x_279 Int) ) (mem4 x_278 x_279 x_272)))) (forall ( (x_280 Int) ) (=> (exists ( (x_281 Int) ) (mem4 x_281 x_280 x_272)) (mem0 x_280 g_s3_3))))))))) (forall ( (x_282 (P (C Int Int))) ) (=> (exists ( (x_283 (P (C Int Int))) ) (and (forall ( (x_284 Int) (x_285 Int) ) (= (mem4 x_285 x_284 x_283) (mem4 x_285 x_284 x_282))) (forall ( (x_286 Int) (x_287 Int) (x_288 Int) ) (=> (and  (mem4 x_286 x_287 x_283) (mem4 x_286 x_288 x_283)) (= x_287 x_288))) (forall ( (x_289 Int) ) (= (and (>= x_289 1) (<= x_289 4)) (exists ( (x_290 Int) ) (mem4 x_289 x_290 x_283)))) (forall ( (x_291 Int) ) (=> (exists ( (x_292 Int) ) (mem4 x_292 x_291 x_283)) (mem0 x_291 g_s3_3))))) (exists ( (x_293 Int) ) (mem5 x_293 x_282 g_s29_26))))) (forall ( (x_294 (P (C Int Int))) (x_295 Int) (x_296 Int) ) (=> (and  (mem5 x_295 x_294 g_s29_26) (mem5 x_296 x_294 g_s29_26)) (= x_295 x_296)))))
(define-fun |def_aprp_3| () Bool (and (and (exists ( (x_297 (P (C Int (P (C Int Int))))) ) (and (forall ( (x_298 (P (C Int Int))) (x_299 Int) ) (= (mem5 x_299 x_298 x_297) (mem5 x_299 x_298 g_s30_27))) (forall ( (x_300 Int) (x_301 (P (C Int Int))) (x_302 (P (C Int Int))) ) (=> (and  (mem5 x_300 x_301 x_297) (mem5 x_300 x_302 x_297)) (forall ( (x_303 Int) (x_304 Int) ) (= (mem4 x_304 x_303 x_301) (mem4 x_304 x_303 x_302))))) (forall ( (x_305 Int) ) (= (mem0 x_305 g_s0_0) (exists ( (x_306 (P (C Int Int))) ) (mem5 x_305 x_306 x_297)))) (forall ( (x_307 (P (C Int Int))) ) (=> (exists ( (x_308 Int) ) (mem5 x_308 x_307 x_297)) (exists ( (x_309 (P (C Int Int))) ) (and (forall ( (x_310 Int) (x_311 Int) ) (= (mem4 x_311 x_310 x_309) (mem4 x_311 x_310 x_307))) (forall ( (x_312 Int) (x_313 Int) (x_314 Int) ) (=> (and  (mem4 x_312 x_313 x_309) (mem4 x_312 x_314 x_309)) (= x_313 x_314))) (forall ( (x_315 Int) ) (= (and (>= x_315 1) (<= x_315 8)) (exists ( (x_316 Int) ) (mem4 x_315 x_316 x_309)))) (forall ( (x_317 Int) ) (=> (exists ( (x_318 Int) ) (mem4 x_318 x_317 x_309)) (mem0 x_317 g_s3_3))))))))) (forall ( (x_319 (P (C Int Int))) ) (=> (exists ( (x_320 (P (C Int Int))) ) (and (forall ( (x_321 Int) (x_322 Int) ) (= (mem4 x_322 x_321 x_320) (mem4 x_322 x_321 x_319))) (forall ( (x_323 Int) (x_324 Int) (x_325 Int) ) (=> (and  (mem4 x_323 x_324 x_320) (mem4 x_323 x_325 x_320)) (= x_324 x_325))) (forall ( (x_326 Int) ) (= (and (>= x_326 1) (<= x_326 8)) (exists ( (x_327 Int) ) (mem4 x_326 x_327 x_320)))) (forall ( (x_328 Int) ) (=> (exists ( (x_329 Int) ) (mem4 x_329 x_328 x_320)) (mem0 x_328 g_s3_3))))) (exists ( (x_330 Int) ) (mem5 x_330 x_319 g_s30_27))))) (forall ( (x_331 (P (C Int Int))) (x_332 Int) (x_333 Int) ) (=> (and  (mem5 x_332 x_331 g_s30_27) (mem5 x_333 x_331 g_s30_27)) (= x_332 x_333)))))
(define-fun |def_aprp_4| () Bool (and (and (exists ( (x_334 (P (C Int (P (C Int Int))))) ) (and (forall ( (x_335 (P (C Int Int))) (x_336 Int) ) (= (mem5 x_336 x_335 x_334) (mem5 x_336 x_335 g_s31_28))) (forall ( (x_337 Int) (x_338 (P (C Int Int))) (x_339 (P (C Int Int))) ) (=> (and  (mem5 x_337 x_338 x_334) (mem5 x_337 x_339 x_334)) (forall ( (x_340 Int) (x_341 Int) ) (= (mem4 x_341 x_340 x_338) (mem4 x_341 x_340 x_339))))) (forall ( (x_342 Int) ) (= (mem0 x_342 g_s2_2) (exists ( (x_343 (P (C Int Int))) ) (mem5 x_342 x_343 x_334)))) (forall ( (x_344 (P (C Int Int))) ) (=> (exists ( (x_345 Int) ) (mem5 x_345 x_344 x_334)) (exists ( (x_346 (P (C Int Int))) ) (and (forall ( (x_347 Int) (x_348 Int) ) (= (mem4 x_348 x_347 x_346) (mem4 x_348 x_347 x_344))) (forall ( (x_349 Int) (x_350 Int) (x_351 Int) ) (=> (and  (mem4 x_349 x_350 x_346) (mem4 x_349 x_351 x_346)) (= x_350 x_351))) (forall ( (x_352 Int) ) (= (and (>= x_352 1) (<= x_352 2)) (exists ( (x_353 Int) ) (mem4 x_352 x_353 x_346)))) (forall ( (x_354 Int) ) (=> (exists ( (x_355 Int) ) (mem4 x_355 x_354 x_346)) (mem0 x_354 g_s3_3))))))))) (forall ( (x_356 (P (C Int Int))) ) (=> (exists ( (x_357 (P (C Int Int))) ) (and (forall ( (x_358 Int) (x_359 Int) ) (= (mem4 x_359 x_358 x_357) (mem4 x_359 x_358 x_356))) (forall ( (x_360 Int) (x_361 Int) (x_362 Int) ) (=> (and  (mem4 x_360 x_361 x_357) (mem4 x_360 x_362 x_357)) (= x_361 x_362))) (forall ( (x_363 Int) ) (= (and (>= x_363 1) (<= x_363 2)) (exists ( (x_364 Int) ) (mem4 x_363 x_364 x_357)))) (forall ( (x_365 Int) ) (=> (exists ( (x_366 Int) ) (mem4 x_366 x_365 x_357)) (mem0 x_365 g_s3_3))))) (exists ( (x_367 Int) ) (mem5 x_367 x_356 g_s31_28))))) (forall ( (x_368 (P (C Int Int))) (x_369 Int) (x_370 Int) ) (=> (and  (mem5 x_369 x_368 g_s31_28) (mem5 x_370 x_368 g_s31_28)) (= x_369 x_370)))))
(define-fun |def_aprp_5| () Bool (and (and (exists ( (x_371 (P (C Int (P (C Int Int))))) ) (and (forall ( (x_372 (P (C Int Int))) (x_373 Int) ) (= (mem5 x_373 x_372 x_371) (mem5 x_373 x_372 g_s32_29))) (forall ( (x_374 Int) (x_375 (P (C Int Int))) (x_376 (P (C Int Int))) ) (=> (and  (mem5 x_374 x_375 x_371) (mem5 x_374 x_376 x_371)) (forall ( (x_377 Int) (x_378 Int) ) (= (mem4 x_378 x_377 x_375) (mem4 x_378 x_377 x_376))))) (forall ( (x_379 Int) ) (= (and (>= x_379 0) (<= x_379 16777215)) (exists ( (x_380 (P (C Int Int))) ) (mem5 x_379 x_380 x_371)))) (forall ( (x_381 (P (C Int Int))) ) (=> (exists ( (x_382 Int) ) (mem5 x_382 x_381 x_371)) (exists ( (x_383 (P (C Int Int))) ) (and (forall ( (x_384 Int) (x_385 Int) ) (= (mem4 x_385 x_384 x_383) (mem4 x_385 x_384 x_381))) (forall ( (x_386 Int) (x_387 Int) (x_388 Int) ) (=> (and  (mem4 x_386 x_387 x_383) (mem4 x_386 x_388 x_383)) (= x_387 x_388))) (forall ( (x_389 Int) ) (= (and (>= x_389 1) (<= x_389 3)) (exists ( (x_390 Int) ) (mem4 x_389 x_390 x_383)))) (forall ( (x_391 Int) ) (=> (exists ( (x_392 Int) ) (mem4 x_392 x_391 x_383)) (mem0 x_391 g_s3_3))))))))) (forall ( (x_393 (P (C Int Int))) ) (=> (exists ( (x_394 (P (C Int Int))) ) (and (forall ( (x_395 Int) (x_396 Int) ) (= (mem4 x_396 x_395 x_394) (mem4 x_396 x_395 x_393))) (forall ( (x_397 Int) (x_398 Int) (x_399 Int) ) (=> (and  (mem4 x_397 x_398 x_394) (mem4 x_397 x_399 x_394)) (= x_398 x_399))) (forall ( (x_400 Int) ) (= (and (>= x_400 1) (<= x_400 3)) (exists ( (x_401 Int) ) (mem4 x_400 x_401 x_394)))) (forall ( (x_402 Int) ) (=> (exists ( (x_403 Int) ) (mem4 x_403 x_402 x_394)) (mem0 x_402 g_s3_3))))) (exists ( (x_404 Int) ) (mem5 x_404 x_393 g_s32_29))))) (forall ( (x_405 (P (C Int Int))) (x_406 Int) (x_407 Int) ) (=> (and  (mem5 x_406 x_405 g_s32_29) (mem5 x_407 x_405 g_s32_29)) (= x_406 x_407)))))
(define-fun |def_aprp_6| () Bool (and (and (exists ( (x_408 (P (C Int (P (C Int Int))))) ) (and (forall ( (x_409 (P (C Int Int))) (x_410 Int) ) (= (mem5 x_410 x_409 x_408) (mem5 x_410 x_409 g_s33_30))) (forall ( (x_411 Int) (x_412 (P (C Int Int))) (x_413 (P (C Int Int))) ) (=> (and  (mem5 x_411 x_412 x_408) (mem5 x_411 x_413 x_408)) (forall ( (x_414 Int) (x_415 Int) ) (= (mem4 x_415 x_414 x_412) (mem4 x_415 x_414 x_413))))) (forall ( (x_416 Int) ) (= (mem0 x_416 g_s1_1) (exists ( (x_417 (P (C Int Int))) ) (mem5 x_416 x_417 x_408)))) (forall ( (x_418 (P (C Int Int))) ) (=> (exists ( (x_419 Int) ) (mem5 x_419 x_418 x_408)) (exists ( (x_420 (P (C Int Int))) ) (and (forall ( (x_421 Int) (x_422 Int) ) (= (mem4 x_422 x_421 x_420) (mem4 x_422 x_421 x_418))) (forall ( (x_423 Int) (x_424 Int) (x_425 Int) ) (=> (and  (mem4 x_423 x_424 x_420) (mem4 x_423 x_425 x_420)) (= x_424 x_425))) (forall ( (x_426 Int) ) (= (and (>= x_426 1) (<= x_426 4)) (exists ( (x_427 Int) ) (mem4 x_426 x_427 x_420)))) (forall ( (x_428 Int) ) (=> (exists ( (x_429 Int) ) (mem4 x_429 x_428 x_420)) (mem0 x_428 g_s3_3))))))))) (forall ( (x_430 (P (C Int Int))) ) (=> (exists ( (x_431 (P (C Int Int))) ) (and (forall ( (x_432 Int) (x_433 Int) ) (= (mem4 x_433 x_432 x_431) (mem4 x_433 x_432 x_430))) (forall ( (x_434 Int) (x_435 Int) (x_436 Int) ) (=> (and  (mem4 x_434 x_435 x_431) (mem4 x_434 x_436 x_431)) (= x_435 x_436))) (forall ( (x_437 Int) ) (= (and (>= x_437 1) (<= x_437 4)) (exists ( (x_438 Int) ) (mem4 x_437 x_438 x_431)))) (forall ( (x_439 Int) ) (=> (exists ( (x_440 Int) ) (mem4 x_440 x_439 x_431)) (mem0 x_439 g_s3_3))))) (exists ( (x_441 Int) ) (mem5 x_441 x_430 g_s33_30))))) (forall ( (x_442 (P (C Int Int))) (x_443 Int) (x_444 Int) ) (=> (and  (mem5 x_443 x_442 g_s33_30) (mem5 x_444 x_442 g_s33_30)) (= x_443 x_444)))))
(define-fun |def_aprp_7| () Bool (and (and (exists ( (x_445 (P (C Int (P (C Int Int))))) ) (and (forall ( (x_446 (P (C Int Int))) (x_447 Int) ) (= (mem5 x_447 x_446 x_445) (mem5 x_447 x_446 g_s34_31))) (forall ( (x_448 Int) (x_449 (P (C Int Int))) (x_450 (P (C Int Int))) ) (=> (and  (mem5 x_448 x_449 x_445) (mem5 x_448 x_450 x_445)) (forall ( (x_451 Int) (x_452 Int) ) (= (mem4 x_452 x_451 x_449) (mem4 x_452 x_451 x_450))))) (forall ( (x_453 Int) ) (= (mem0 x_453 g_s0_0) (exists ( (x_454 (P (C Int Int))) ) (mem5 x_453 x_454 x_445)))) (forall ( (x_455 (P (C Int Int))) ) (=> (exists ( (x_456 Int) ) (mem5 x_456 x_455 x_445)) (exists ( (x_457 (P (C Int Int))) ) (and (forall ( (x_458 Int) (x_459 Int) ) (= (mem4 x_459 x_458 x_457) (mem4 x_459 x_458 x_455))) (forall ( (x_460 Int) (x_461 Int) (x_462 Int) ) (=> (and  (mem4 x_460 x_461 x_457) (mem4 x_460 x_462 x_457)) (= x_461 x_462))) (forall ( (x_463 Int) ) (= (and (>= x_463 1) (<= x_463 8)) (exists ( (x_464 Int) ) (mem4 x_463 x_464 x_457)))) (forall ( (x_465 Int) ) (=> (exists ( (x_466 Int) ) (mem4 x_466 x_465 x_457)) (mem0 x_465 g_s3_3))))))))) (forall ( (x_467 (P (C Int Int))) ) (=> (exists ( (x_468 (P (C Int Int))) ) (and (forall ( (x_469 Int) (x_470 Int) ) (= (mem4 x_470 x_469 x_468) (mem4 x_470 x_469 x_467))) (forall ( (x_471 Int) (x_472 Int) (x_473 Int) ) (=> (and  (mem4 x_471 x_472 x_468) (mem4 x_471 x_473 x_468)) (= x_472 x_473))) (forall ( (x_474 Int) ) (= (and (>= x_474 1) (<= x_474 8)) (exists ( (x_475 Int) ) (mem4 x_474 x_475 x_468)))) (forall ( (x_476 Int) ) (=> (exists ( (x_477 Int) ) (mem4 x_477 x_476 x_468)) (mem0 x_476 g_s3_3))))) (exists ( (x_478 Int) ) (mem5 x_478 x_467 g_s34_31))))) (forall ( (x_479 (P (C Int Int))) (x_480 Int) (x_481 Int) ) (=> (and  (mem5 x_480 x_479 g_s34_31) (mem5 x_481 x_479 g_s34_31)) (= x_480 x_481)))))
(define-fun |def_imlprp_0| () Bool (forall ( (x_482 (P (C Int Int))) (x_483 Int) ) (= (mem5 x_483 x_482 g_s30_27) (and  (mem0 x_483 g_s0_0) (forall ( (x_484 Int) (x_485 Int) ) (= (mem4 x_485 x_484 x_482) (or  (and (= x_485 1) (= x_484 (mod (mod x_483 4294967296) 256))) (and (= x_485 2) (forall ((x_486 Int) ) (=> (forall ((x_487 Int)(x_488 Int) ) (=> (and (= x_487 (mod x_483 4294967296)) (= x_488 8)) (mem3 x_487 x_488 x_486 g_s22_19))) (= x_484 (mod x_486 256))))) (and (= x_485 3) (forall ((x_489 Int) ) (=> (forall ((x_490 Int)(x_491 Int) ) (=> (and (forall ((x_492 Int)(x_493 Int) ) (=> (and (= x_492 (mod x_483 4294967296)) (= x_493 8)) (mem3 x_492 x_493 x_490 g_s22_19))) (= x_491 8)) (mem3 x_490 x_491 x_489 g_s22_19))) (= x_484 (mod x_489 256))))) (and (= x_485 4) (forall ((x_494 Int) ) (=> (forall ((x_495 Int)(x_496 Int) ) (=> (and (forall ((x_497 Int)(x_498 Int) ) (=> (and (forall ((x_499 Int)(x_500 Int) ) (=> (and (= x_499 (mod x_483 4294967296)) (= x_500 8)) (mem3 x_499 x_500 x_497 g_s22_19))) (= x_498 8)) (mem3 x_497 x_498 x_495 g_s22_19))) (= x_496 8)) (mem3 x_495 x_496 x_494 g_s22_19))) (= x_484 (mod x_494 256))))) (and (= x_485 5) (= x_484 (mod (divB x_483 4294967296) 256))) (and (= x_485 6) (forall ((x_501 Int) ) (=> (forall ((x_502 Int)(x_503 Int) ) (=> (and (= x_502 (divB x_483 4294967296)) (= x_503 8)) (mem3 x_502 x_503 x_501 g_s22_19))) (= x_484 (mod x_501 256))))) (and (= x_485 7) (forall ((x_504 Int) ) (=> (forall ((x_505 Int)(x_506 Int) ) (=> (and (forall ((x_507 Int)(x_508 Int) ) (=> (and (= x_507 (divB x_483 4294967296)) (= x_508 8)) (mem3 x_507 x_508 x_505 g_s22_19))) (= x_506 8)) (mem3 x_505 x_506 x_504 g_s22_19))) (= x_484 (mod x_504 256))))) (and (= x_485 8) (forall ((x_509 Int) ) (=> (forall ((x_510 Int)(x_511 Int) ) (=> (and (forall ((x_512 Int)(x_513 Int) ) (=> (and (forall ((x_514 Int)(x_515 Int) ) (=> (and (= x_514 (divB x_483 4294967296)) (= x_515 8)) (mem3 x_514 x_515 x_512 g_s22_19))) (= x_513 8)) (mem3 x_512 x_513 x_510 g_s22_19))) (= x_511 8)) (mem3 x_510 x_511 x_509 g_s22_19))) (= x_484 (mod x_509 256))))))))))))
(define-fun |def_imlprp_1| () Bool (forall ( (x_516 (P (C Int Int))) (x_517 Int) ) (= (mem5 x_517 x_516 g_s29_26) (and  (mem0 x_517 g_s1_1) (forall ( (x_518 Int) (x_519 Int) ) (= (mem4 x_519 x_518 x_516) (or  (and (= x_519 1) (= x_518 (mod x_517 256))) (and (= x_519 2) (forall ((x_520 Int) ) (=> (forall ((x_521 Int) ) (=> (= x_521 8) (mem3 x_517 x_521 x_520 g_s22_19))) (= x_518 (mod x_520 256))))) (and (= x_519 3) (forall ((x_522 Int) ) (=> (forall ((x_523 Int)(x_524 Int) ) (=> (and (forall ((x_525 Int) ) (=> (= x_525 8) (mem3 x_517 x_525 x_523 g_s22_19))) (= x_524 8)) (mem3 x_523 x_524 x_522 g_s22_19))) (= x_518 (mod x_522 256))))) (and (= x_519 4) (forall ((x_526 Int) ) (=> (forall ((x_527 Int)(x_528 Int) ) (=> (and (forall ((x_529 Int)(x_530 Int) ) (=> (and (forall ((x_531 Int) ) (=> (= x_531 8) (mem3 x_517 x_531 x_529 g_s22_19))) (= x_530 8)) (mem3 x_529 x_530 x_527 g_s22_19))) (= x_528 8)) (mem3 x_527 x_528 x_526 g_s22_19))) (= x_518 (mod x_526 256))))))))))))
(define-fun |def_imlprp_2| () Bool (forall ( (x_532 (P (C Int Int))) (x_533 Int) ) (= (mem5 x_533 x_532 g_s28_25) (and  (and (>= x_533 0) (<= x_533 16777215)) (forall ( (x_534 Int) (x_535 Int) ) (= (mem4 x_535 x_534 x_532) (or  (and (= x_535 1) (= x_534 (mod x_533 256))) (and (= x_535 2) (forall ((x_536 Int) ) (=> (forall ((x_537 Int) ) (=> (= x_537 8) (mem3 x_533 x_537 x_536 g_s22_19))) (= x_534 (mod x_536 256))))) (and (= x_535 3) (forall ((x_538 Int) ) (=> (forall ((x_539 Int) ) (=> (= x_539 16) (mem3 x_533 x_539 x_538 g_s22_19))) (= x_534 (mod x_538 256))))))))))))
(define-fun |def_imlprp_3| () Bool (forall ( (x_540 (P (C Int Int))) (x_541 Int) ) (= (mem5 x_541 x_540 g_s27_24) (and  (and (>= x_541 0) (<= x_541 65535)) (forall ( (x_542 Int) (x_543 Int) ) (= (mem4 x_543 x_542 x_540) (or  (and (= x_543 1) (= x_542 (mod x_541 256))) (and (= x_543 2) (forall ((x_544 Int) ) (=> (forall ((x_545 Int) ) (=> (= x_545 8) (mem3 x_541 x_545 x_544 g_s22_19))) (= x_542 (mod x_544 256))))))))))))
(define-fun |def_imlprp_4| () Bool (forall ( (x_546 (P (C Int Int))) (x_547 Int) ) (= (mem5 x_547 x_546 g_s34_31) (and  (mem0 x_547 g_s0_0) (forall ( (x_548 Int) (x_549 Int) ) (= (mem4 x_549 x_548 x_546) (and  (forall ((x_551 Int) ) (=> (forall ( (x_552 Int) ) (= (exists ( (x_553 Int) ) (forall ((x_554 (P (C Int Int))) ) (=> (mem5 x_547 x_554 g_s30_27) (mem4 x_552 x_553 x_554)))) (and (>= x_552 1) (<= x_552 x_551)))) (and (>= x_549 1) (<= x_549 x_551)))) (forall ((x_555 (P (C Int Int)))(x_556 Int) ) (=> (and (mem5 x_547 x_555 g_s30_27) (forall ((x_557 Int) ) (=> (forall ( (x_558 Int) ) (= (exists ( (x_559 Int) ) (forall ((x_560 (P (C Int Int))) ) (=> (mem5 x_547 x_560 g_s30_27) (mem4 x_558 x_559 x_560)))) (and (>= x_558 1) (<= x_558 x_557)))) (= x_556 (+ (- x_557 x_549) 1))))) (mem4 x_556 x_548 x_555))))))))))
(define-fun |def_imlprp_5| () Bool (forall ( (x_561 (P (C Int Int))) (x_562 Int) ) (= (mem5 x_562 x_561 g_s33_30) (and  (mem0 x_562 g_s1_1) (forall ( (x_563 Int) (x_564 Int) ) (= (mem4 x_564 x_563 x_561) (and  (forall ((x_566 Int) ) (=> (forall ( (x_567 Int) ) (= (exists ( (x_568 Int) ) (forall ((x_569 (P (C Int Int))) ) (=> (mem5 x_562 x_569 g_s29_26) (mem4 x_567 x_568 x_569)))) (and (>= x_567 1) (<= x_567 x_566)))) (and (>= x_564 1) (<= x_564 x_566)))) (forall ((x_570 (P (C Int Int)))(x_571 Int) ) (=> (and (mem5 x_562 x_570 g_s29_26) (forall ((x_572 Int) ) (=> (forall ( (x_573 Int) ) (= (exists ( (x_574 Int) ) (forall ((x_575 (P (C Int Int))) ) (=> (mem5 x_562 x_575 g_s29_26) (mem4 x_573 x_574 x_575)))) (and (>= x_573 1) (<= x_573 x_572)))) (= x_571 (+ (- x_572 x_564) 1))))) (mem4 x_571 x_563 x_570))))))))))
(define-fun |def_imlprp_6| () Bool (forall ( (x_576 (P (C Int Int))) (x_577 Int) ) (= (mem5 x_577 x_576 g_s32_29) (and  (and (>= x_577 0) (<= x_577 16777215)) (forall ( (x_578 Int) (x_579 Int) ) (= (mem4 x_579 x_578 x_576) (and  (forall ((x_581 Int) ) (=> (forall ( (x_582 Int) ) (= (exists ( (x_583 Int) ) (forall ((x_584 (P (C Int Int))) ) (=> (mem5 x_577 x_584 g_s28_25) (mem4 x_582 x_583 x_584)))) (and (>= x_582 1) (<= x_582 x_581)))) (and (>= x_579 1) (<= x_579 x_581)))) (forall ((x_585 (P (C Int Int)))(x_586 Int) ) (=> (and (mem5 x_577 x_585 g_s28_25) (forall ((x_587 Int) ) (=> (forall ( (x_588 Int) ) (= (exists ( (x_589 Int) ) (forall ((x_590 (P (C Int Int))) ) (=> (mem5 x_577 x_590 g_s28_25) (mem4 x_588 x_589 x_590)))) (and (>= x_588 1) (<= x_588 x_587)))) (= x_586 (+ (- x_587 x_579) 1))))) (mem4 x_586 x_578 x_585))))))))))
(define-fun |def_imlprp_7| () Bool (forall ( (x_591 (P (C Int Int))) (x_592 Int) ) (= (mem5 x_592 x_591 g_s31_28) (and  (mem0 x_592 g_s2_2) (forall ( (x_593 Int) (x_594 Int) ) (= (mem4 x_594 x_593 x_591) (and  (forall ((x_596 Int) ) (=> (forall ( (x_597 Int) ) (= (exists ( (x_598 Int) ) (forall ((x_599 (P (C Int Int))) ) (=> (mem5 x_592 x_599 g_s27_24) (mem4 x_597 x_598 x_599)))) (and (>= x_597 1) (<= x_597 x_596)))) (and (>= x_594 1) (<= x_594 x_596)))) (forall ((x_600 (P (C Int Int)))(x_601 Int) ) (=> (and (mem5 x_592 x_600 g_s27_24) (forall ((x_602 Int) ) (=> (forall ( (x_603 Int) ) (= (exists ( (x_604 Int) ) (forall ((x_605 (P (C Int Int))) ) (=> (mem5 x_592 x_605 g_s27_24) (mem4 x_603 x_604 x_605)))) (and (>= x_603 1) (<= x_603 x_602)))) (= x_601 (+ (- x_602 x_594) 1))))) (mem4 x_601 x_593 x_600))))))))))
; PO group s35
(assert (! |def_ctx_0| :named |ctx0|))
(assert (! |def_ctx_1| :named |ctx1|))
(assert (! |def_ctx_2| :named |ctx2|))
(assert (! |def_ctx_3| :named |ctx3|))
(assert (! |def_ctx_4| :named |ctx4|))
(assert (! |def_ctx_5| :named |ctx5|))
(assert (! |def_ctx_6| :named |ctx6|))
(assert (! |def_ctx_7| :named |ctx7|))
(assert (! |def_ctx_8| :named |ctx8|))
(assert (! |def_ctx_9| :named |ctx9|))
(assert (! |def_ctx_10| :named |ctx10|))
(assert (! |def_ctx_11| :named |ctx11|))
(assert (! |def_ctx_12| :named |ctx12|))
(assert (! |def_ctx_13| :named |ctx13|))
(assert (! |def_ctx_14| :named |ctx14|))
(assert (! |def_ctx_15| :named |ctx15|))
(assert (! |def_ctx_16| :named |ctx16|))
(assert (! |def_ctx_17| :named |ctx17|))
(assert (! |def_ctx_18| :named |ctx18|))
(assert (! |def_ctx_19| :named |ctx19|))
(assert (! |def_ctx_20| :named |ctx20|))
(assert (! |def_ctx_21| :named |ctx21|))
(assert (! |def_ctx_22| :named |ctx22|))
(assert (! |def_ctx_23| :named |ctx23|))
(assert (! |def_ctx_24| :named |ctx24|))
(assert (! |def_ctx_25| :named |ctx25|))
(assert (! |def_ctx_26| :named |ctx26|))
(assert (! |def_ctx_27| :named |ctx27|))
(assert (! |def_ctx_28| :named |ctx28|))
(assert (! |def_ctx_29| :named |ctx29|))
(assert (! |def_ctx_30| :named |ctx30|))
(assert (! |def_ctx_31| :named |ctx31|))
(assert (! |def_ctx_32| :named |ctx32|))
(assert (! |def_ctx_33| :named |ctx33|))
(assert (! |def_ctx_34| :named |ctx34|))
(assert (! |def_ctx_35| :named |ctx35|))
(assert (! |def_ctx_36| :named |ctx36|))
(assert (! |def_ctx_37| :named |ctx37|))
(assert (! |def_ctx_38| :named |ctx38|))
(assert (! |def_ctx_39| :named |ctx39|))
(assert (! |def_ctx_40| :named |ctx40|))
(define-fun lh_1 () Bool (mem0 g_s20_32 g_s0_0))
(define-fun lh_2 () Bool (mem0 g_s20_32 g_s1_1))
(define-fun lh_3 () Bool (and (>= g_s20_32 0) (<= g_s20_32 16777215)))
(define-fun lh_4 () Bool (and (>= g_s20_32 0) (<= g_s20_32 65535)))
(define-fun lh_5 () Bool (mem0 g_s20$1_33 g_s0_0))
(define-fun lh_6 () Bool (mem0 g_s20$1_33 g_s1_1))
(define-fun lh_7 () Bool (and (>= g_s20$1_33 0) (<= g_s20$1_33 16777215)))
(define-fun lh_8 () Bool (mem0 g_s20_32 g_s2_2))
(define-fun lh_9 () Bool (and (>= g_s20$1_33 0) (<= g_s20$1_33 65535)))
; PO 24 in group s35
(assert (! (not (=> lh_2 (exists ( (x_606 Int) ) (forall ((x_607 Int)(x_608 Int) ) (=> (and (forall ((x_609 Int) ) (=> (= x_609 8) (mem3 g_s20_32 x_609 x_607 g_s22_19))) (= x_608 8)) (mem3 x_607 x_608 x_606 g_s22_19)))))) :named goal))
(check-sat)
(exit)
